
Gurobi 9.1.2 (win64, Java) logging started Fri Nov  5 19:59:52 2021

Academic license - for non-commercial use only - expires 2022-10-30
Gurobi Optimizer version 9.1.2 build v9.1.2rc0 (win64)
Thread count: 6 physical cores, 12 logical processors, using up to 12 threads
Optimize a model with 60 rows, 800 columns and 1600 nonzeros
Model fingerprint: 0xfe36b512
Variable types: 0 continuous, 800 integer (800 binary)
Coefficient statistics:
  Matrix range     [1e+00, 1e+03]
  Objective range  [4e+01, 1e+03]
  Bounds range     [1e+00, 1e+00]
  RHS range        [1e+00, 9e+02]
Found heuristic solution: objective 11613.000000
Presolve removed 8 rows and 418 columns
Presolve time: 0.01s
Presolved: 52 rows, 382 columns, 763 nonzeros
Variable types: 0 continuous, 382 integer (382 binary)
Presolve removed 0 rows and 3 columns
Presolved: 52 rows, 379 columns, 757 nonzeros


Root relaxation: objective 1.497861e+04, 223 iterations, 0.00 seconds

    Nodes    |    Current Node    |     Objective Bounds      |     Work
 Expl Unexpl |  Obj  Depth IntInf | Incumbent    BestBd   Gap | It/Node Time

     0     0 14978.6125    0   24 11613.0000 14978.6125  29.0%     -    0s
H    0     0                    14202.000000 14978.6125  5.47%     -    0s
H    0     0                    14260.000000 14978.6125  5.04%     -    0s
     0     0 14727.0000    0   15 14260.0000 14727.0000  3.27%     -    0s
H    0     0                    14269.000000 14727.0000  3.21%     -    0s
     0     0 14727.0000    0   21 14269.0000 14727.0000  3.21%     -    0s
     0     0 14727.0000    0   18 14269.0000 14727.0000  3.21%     -    0s
H    0     0                    14669.000000 14727.0000  0.40%     -    0s
     0     0 14727.0000    0   21 14669.0000 14727.0000  0.40%     -    0s
     0     0 14727.0000    0   16 14669.0000 14727.0000  0.40%     -    0s
     0     0 14727.0000    0   26 14669.0000 14727.0000  0.40%     -    0s
     0     0 14727.0000    0   10 14669.0000 14727.0000  0.40%     -    0s
     0     0 14727.0000    0   24 14669.0000 14727.0000  0.40%     -    0s
     0     0 14727.0000    0   11 14669.0000 14727.0000  0.40%     -    0s
     0     0 14727.0000    0   11 14669.0000 14727.0000  0.40%     -    0s
     0     2 14727.0000    0   11 14669.0000 14727.0000  0.40%     -    0s
H    8    10                    14727.000000 14727.0000  0.00%  17.0    0s

Cutting planes:
  Gomory: 10
  Cover: 38
  Clique: 5
  MIR: 22
  StrongCG: 14
  RLT: 1

Explored 12 nodes (1757 simplex iterations) in 0.61 seconds
Thread count was 12 (of 12 available processors)

Solution count 6: 14727 14669 14269 ... 11613

Optimal solution found (tolerance 1.00e-04)
Best objective 1.472700000000e+04, best bound 1.472700000000e+04, gap 0.0000%
